1447.68
0 15 37 69 1 68 4 52 8 67 12 0
0 23 56 3 72 58 10 11 14 45 0
0 25 24 73 21 20 13 27 19 65 26 0
0 31 9 32 28 30 75 34 0
0 41 42 43 18 55 44 40 39 38 0
0 16 22 71 70 36 47 48 5 57 54 46 0
0 62 64 61 60 29 59 53 35 7 17 0
0 74 2 33 63 49 50 66 51 6 0
